(set-logic HORN)
(declare-fun invariant (Real Real Real Real Real Real Real Real Real Real Real Real Real Real Real Real Real Real Real Real Real Real Real Real Real Real Real Real Real Real Real Real Real Real Real Real Real Real Real Real Real Real Real Real Real Real Real Real Bool Bool Bool Bool Bool Bool Bool Bool Bool Bool Bool Real Real Real Real Real Real) Bool)

;; Initial state
(assert
  (forall ((state.cx!0!0 Real) (state.cx!0!1 Real) (state.cx!0!2 Real) (state.cx!0!3 Real) (state.cx!0!4 Real) (state.cx!0!5 Real) (state.cx!0!6 Real) (state.cx!0!7 Real) (state.cx!1!0 Real) (state.cx!1!1 Real) (state.cx!1!2 Real) (state.cx!1!3 Real) (state.cx!1!4 Real) (state.cx!1!5 Real) (state.cx!1!6 Real) (state.cx!1!7 Real) (state.cx!2!0 Real) (state.cx!2!1 Real) (state.cx!2!2 Real) (state.cx!2!3 Real) (state.cx!2!4 Real) (state.cx!2!5 Real) (state.cx!2!6 Real) (state.cx!2!7 Real) (state.cy!0!0 Real) (state.cy!0!1 Real) (state.cy!0!2 Real) (state.cy!0!3 Real) (state.cy!0!4 Real) (state.cy!0!5 Real) (state.cy!0!6 Real) (state.cy!0!7 Real) (state.cy!1!0 Real) (state.cy!1!1 Real) (state.cy!1!2 Real) (state.cy!1!3 Real) (state.cy!1!4 Real) (state.cy!1!5 Real) (state.cy!1!6 Real) (state.cy!1!7 Real) (state.cy!2!0 Real) (state.cy!2!1 Real) (state.cy!2!2 Real) (state.cy!2!3 Real) (state.cy!2!4 Real) (state.cy!2!5 Real) (state.cy!2!6 Real) (state.cy!2!7 Real) (state.good_p!0 Bool) (state.good_p!1 Bool) (state.good_p!2 Bool) (state.good_r!0 Bool) (state.good_r!1 Bool) (state.good_r!2 Bool) (state.good_r!3 Bool) (state.good_r!4 Bool) (state.good_r!5 Bool) (state.good_r!6 Bool) (state.good_r!7 Bool) (state.v!0 Real) (state.v!1 Real) (state.v!2 Real) (state.round Real) (state.source Real) (state.val Real))
    (=> (let ((l0 (= |state.round| 0))) (let ((l1 (= |state.cx!0!0| 0))) (let ((l2 (= |state.cx!0!1| 0))) (let ((l3 (= |state.cx!0!2| 0))) (let ((l4 (= |state.cx!0!3| 0))) (let ((l5 (= |state.cx!0!4| 0))) (let ((l6 (= |state.cx!0!5| 0))) (let ((l7 (= |state.cx!0!6| 0))) (let ((l8 (= |state.cx!0!7| 0))) (let ((l9 (= |state.cx!1!0| 0))) (let ((l10 (= |state.cx!1!1| 0))) (let ((l11 (= |state.cx!1!2| 0))) (let ((l12 (= |state.cx!1!3| 0))) (let ((l13 (= |state.cx!1!4| 0))) (let ((l14 (= |state.cx!1!5| 0))) (let ((l15 (= |state.cx!1!6| 0))) (let ((l16 (= |state.cx!1!7| 0))) (let ((l17 (= |state.cx!2!0| 0))) (let ((l18 (= |state.cx!2!1| 0))) (let ((l19 (= |state.cx!2!2| 0))) (let ((l20 (= |state.cx!2!3| 0))) (let ((l21 (= |state.cx!2!4| 0))) (let ((l22 (= |state.cx!2!5| 0))) (let ((l23 (= |state.cx!2!6| 0))) (let ((l24 (= |state.cx!2!7| 0))) (let ((l25 (= |state.cy!0!0| 0))) (let ((l26 (= |state.cy!0!1| 0))) (let ((l27 (= |state.cy!0!2| 0))) (let ((l28 (= |state.cy!0!3| 0))) (let ((l29 (= |state.cy!0!4| 0))) (let ((l30 (= |state.cy!0!5| 0))) (let ((l31 (= |state.cy!0!6| 0))) (let ((l32 (= |state.cy!0!7| 0))) (let ((l33 (= |state.cy!1!0| 0))) (let ((l34 (= |state.cy!1!1| 0))) (let ((l35 (= |state.cy!1!2| 0))) (let ((l36 (= |state.cy!1!3| 0))) (let ((l37 (= |state.cy!1!4| 0))) (let ((l38 (= |state.cy!1!5| 0))) (let ((l39 (= |state.cy!1!6| 0))) (let ((l40 (= |state.cy!1!7| 0))) (let ((l41 (= |state.cy!2!0| 0))) (let ((l42 (= |state.cy!2!1| 0))) (let ((l43 (= |state.cy!2!2| 0))) (let ((l44 (= |state.cy!2!3| 0))) (let ((l45 (= |state.cy!2!4| 0))) (let ((l46 (= |state.cy!2!5| 0))) (let ((l47 (= |state.cy!2!6| 0))) (let ((l48 (= |state.cy!2!7| 0))) (let ((l49 (= |state.source| 1))) (let ((l50 (= |state.source| 2))) (let ((l51 (= |state.source| 3))) (let ((l52 (or l49 l50 l51))) (let ((l53 (= |state.val| 0))) (let ((l54 (not l53))) (let ((l55 (and |state.good_p!0| |state.good_p!1| |state.good_p!2|))) (let ((l56 (not |state.good_r!0|))) (let ((l57 (and l56 |state.good_r!1| |state.good_r!2| |state.good_r!3| |state.good_r!4| |state.good_r!5| |state.good_r!6| |state.good_r!7|))) (let ((l58 (not |state.good_r!1|))) (let ((l59 (and l58 |state.good_r!0| |state.good_r!2| |state.good_r!3| |state.good_r!4| |state.good_r!5| |state.good_r!6| |state.good_r!7|))) (let ((l60 (not |state.good_r!2|))) (let ((l61 (and l60 |state.good_r!0| |state.good_r!1| |state.good_r!3| |state.good_r!4| |state.good_r!5| |state.good_r!6| |state.good_r!7|))) (let ((l62 (not |state.good_r!3|))) (let ((l63 (and l62 |state.good_r!0| |state.good_r!1| |state.good_r!2| |state.good_r!4| |state.good_r!5| |state.good_r!6| |state.good_r!7|))) (let ((l64 (not |state.good_r!4|))) (let ((l65 (and l64 |state.good_r!0| |state.good_r!1| |state.good_r!2| |state.good_r!3| |state.good_r!5| |state.good_r!6| |state.good_r!7|))) (let ((l66 (not |state.good_r!5|))) (let ((l67 (and l66 |state.good_r!0| |state.good_r!1| |state.good_r!2| |state.good_r!3| |state.good_r!4| |state.good_r!6| |state.good_r!7|))) (let ((l68 (not |state.good_r!6|))) (let ((l69 (and l68 |state.good_r!0| |state.good_r!1| |state.good_r!2| |state.good_r!3| |state.good_r!4| |state.good_r!5| |state.good_r!7|))) (let ((l70 (not |state.good_r!7|))) (let ((l71 (and l70 |state.good_r!0| |state.good_r!1| |state.good_r!2| |state.good_r!3| |state.good_r!4| |state.good_r!5| |state.good_r!6|))) (let ((l72 (or l57 l59 l61 l63 l65 l67 l69 l71))) (let ((l73 (and l0 l1 l2 l3 l4 l5 l6 l7 l8 l9 l10 l11 l12 l13 l14 l15 l16 l17 l18 l19 l20 l21 l22 l23 l24 l25 l26 l27 l28 l29 l30 l31 l32 l33 l34 l35 l36 l37 l38 l39 l40 l41 l42 l43 l44 l45 l46 l47 l48 l52 l54 l55 l72))) l73))))))))))))))))))))))))))))))))))))))))))))))))))))))))))))))))))))))))))
        (invariant state.cx!0!0 state.cx!0!1 state.cx!0!2 state.cx!0!3 state.cx!0!4 state.cx!0!5 state.cx!0!6 state.cx!0!7 state.cx!1!0 state.cx!1!1 state.cx!1!2 state.cx!1!3 state.cx!1!4 state.cx!1!5 state.cx!1!6 state.cx!1!7 state.cx!2!0 state.cx!2!1 state.cx!2!2 state.cx!2!3 state.cx!2!4 state.cx!2!5 state.cx!2!6 state.cx!2!7 state.cy!0!0 state.cy!0!1 state.cy!0!2 state.cy!0!3 state.cy!0!4 state.cy!0!5 state.cy!0!6 state.cy!0!7 state.cy!1!0 state.cy!1!1 state.cy!1!2 state.cy!1!3 state.cy!1!4 state.cy!1!5 state.cy!1!6 state.cy!1!7 state.cy!2!0 state.cy!2!1 state.cy!2!2 state.cy!2!3 state.cy!2!4 state.cy!2!5 state.cy!2!6 state.cy!2!7 state.good_p!0 state.good_p!1 state.good_p!2 state.good_r!0 state.good_r!1 state.good_r!2 state.good_r!3 state.good_r!4 state.good_r!5 state.good_r!6 state.good_r!7 state.v!0 state.v!1 state.v!2 state.round state.source state.val))
  )
)

;; Transition relation
(assert
  (forall ((state.cx!0!0 Real) (next.cx!0!0 Real) (state.cx!0!1 Real) (next.cx!0!1 Real) (state.cx!0!2 Real) (next.cx!0!2 Real) (state.cx!0!3 Real) (next.cx!0!3 Real) (state.cx!0!4 Real) (next.cx!0!4 Real) (state.cx!0!5 Real) (next.cx!0!5 Real) (state.cx!0!6 Real) (next.cx!0!6 Real) (state.cx!0!7 Real) (next.cx!0!7 Real) (state.cx!1!0 Real) (next.cx!1!0 Real) (state.cx!1!1 Real) (next.cx!1!1 Real) (state.cx!1!2 Real) (next.cx!1!2 Real) (state.cx!1!3 Real) (next.cx!1!3 Real) (state.cx!1!4 Real) (next.cx!1!4 Real) (state.cx!1!5 Real) (next.cx!1!5 Real) (state.cx!1!6 Real) (next.cx!1!6 Real) (state.cx!1!7 Real) (next.cx!1!7 Real) (state.cx!2!0 Real) (next.cx!2!0 Real) (state.cx!2!1 Real) (next.cx!2!1 Real) (state.cx!2!2 Real) (next.cx!2!2 Real) (state.cx!2!3 Real) (next.cx!2!3 Real) (state.cx!2!4 Real) (next.cx!2!4 Real) (state.cx!2!5 Real) (next.cx!2!5 Real) (state.cx!2!6 Real) (next.cx!2!6 Real) (state.cx!2!7 Real) (next.cx!2!7 Real) (state.cy!0!0 Real) (next.cy!0!0 Real) (state.cy!0!1 Real) (next.cy!0!1 Real) (state.cy!0!2 Real) (next.cy!0!2 Real) (state.cy!0!3 Real) (next.cy!0!3 Real) (state.cy!0!4 Real) (next.cy!0!4 Real) (state.cy!0!5 Real) (next.cy!0!5 Real) (state.cy!0!6 Real) (next.cy!0!6 Real) (state.cy!0!7 Real) (next.cy!0!7 Real) (state.cy!1!0 Real) (next.cy!1!0 Real) (state.cy!1!1 Real) (next.cy!1!1 Real) (state.cy!1!2 Real) (next.cy!1!2 Real) (state.cy!1!3 Real) (next.cy!1!3 Real) (state.cy!1!4 Real) (next.cy!1!4 Real) (state.cy!1!5 Real) (next.cy!1!5 Real) (state.cy!1!6 Real) (next.cy!1!6 Real) (state.cy!1!7 Real) (next.cy!1!7 Real) (state.cy!2!0 Real) (next.cy!2!0 Real) (state.cy!2!1 Real) (next.cy!2!1 Real) (state.cy!2!2 Real) (next.cy!2!2 Real) (state.cy!2!3 Real) (next.cy!2!3 Real) (state.cy!2!4 Real) (next.cy!2!4 Real) (state.cy!2!5 Real) (next.cy!2!5 Real) (state.cy!2!6 Real) (next.cy!2!6 Real) (state.cy!2!7 Real) (next.cy!2!7 Real) (state.good_p!0 Bool) (next.good_p!0 Bool) (state.good_p!1 Bool) (next.good_p!1 Bool) (state.good_p!2 Bool) (next.good_p!2 Bool) (state.good_r!0 Bool) (next.good_r!0 Bool) (state.good_r!1 Bool) (next.good_r!1 Bool) (state.good_r!2 Bool) (next.good_r!2 Bool) (state.good_r!3 Bool) (next.good_r!3 Bool) (state.good_r!4 Bool) (next.good_r!4 Bool) (state.good_r!5 Bool) (next.good_r!5 Bool) (state.good_r!6 Bool) (next.good_r!6 Bool) (state.good_r!7 Bool) (next.good_r!7 Bool) (state.v!0 Real) (next.v!0 Real) (state.v!1 Real) (next.v!1 Real) (state.v!2 Real) (next.v!2 Real) (state.round Real) (next.round Real) (state.source Real) (next.source Real) (state.val Real) (next.val Real))
    (=> (and (invariant state.cx!0!0 state.cx!0!1 state.cx!0!2 state.cx!0!3 state.cx!0!4 state.cx!0!5 state.cx!0!6 state.cx!0!7 state.cx!1!0 state.cx!1!1 state.cx!1!2 state.cx!1!3 state.cx!1!4 state.cx!1!5 state.cx!1!6 state.cx!1!7 state.cx!2!0 state.cx!2!1 state.cx!2!2 state.cx!2!3 state.cx!2!4 state.cx!2!5 state.cx!2!6 state.cx!2!7 state.cy!0!0 state.cy!0!1 state.cy!0!2 state.cy!0!3 state.cy!0!4 state.cy!0!5 state.cy!0!6 state.cy!0!7 state.cy!1!0 state.cy!1!1 state.cy!1!2 state.cy!1!3 state.cy!1!4 state.cy!1!5 state.cy!1!6 state.cy!1!7 state.cy!2!0 state.cy!2!1 state.cy!2!2 state.cy!2!3 state.cy!2!4 state.cy!2!5 state.cy!2!6 state.cy!2!7 state.good_p!0 state.good_p!1 state.good_p!2 state.good_r!0 state.good_r!1 state.good_r!2 state.good_r!3 state.good_r!4 state.good_r!5 state.good_r!6 state.good_r!7 state.v!0 state.v!1 state.v!2 state.round state.source state.val)
             (let ((l0 (= |next.source| |state.source|))) (let ((l1 (= |next.val| |state.val|))) (let ((l2 (= |state.round| 0))) (let ((l3 (not |state.good_p!0|))) (let ((l4 (= 1 |state.source|))) (let ((l5 (not l4))) (let ((l6 (= |next.cx!0!0| |state.val|))) (let ((l7 (= |next.cx!0!1| |state.val|))) (let ((l8 (= |next.cx!0!2| |state.val|))) (let ((l9 (= |next.cx!0!3| |state.val|))) (let ((l10 (= |next.cx!0!4| |state.val|))) (let ((l11 (= |next.cx!0!5| |state.val|))) (let ((l12 (= |next.cx!0!6| |state.val|))) (let ((l13 (= |next.cx!0!7| |state.val|))) (let ((l14 (and l6 l7 l8 l9 l10 l11 l12 l13))) (let ((l15 (or l3 l5 l14))) (let ((l16 (not |state.good_p!1|))) (let ((l17 (= 2 |state.source|))) (let ((l18 (not l17))) (let ((l19 (= |next.cx!1!0| |state.val|))) (let ((l20 (= |next.cx!1!1| |state.val|))) (let ((l21 (= |next.cx!1!2| |state.val|))) (let ((l22 (= |next.cx!1!3| |state.val|))) (let ((l23 (= |next.cx!1!4| |state.val|))) (let ((l24 (= |next.cx!1!5| |state.val|))) (let ((l25 (= |next.cx!1!6| |state.val|))) (let ((l26 (= |next.cx!1!7| |state.val|))) (let ((l27 (and l19 l20 l21 l22 l23 l24 l25 l26))) (let ((l28 (or l16 l18 l27))) (let ((l29 (not |state.good_p!2|))) (let ((l30 (= 3 |state.source|))) (let ((l31 (not l30))) (let ((l32 (= |next.cx!2!0| |state.val|))) (let ((l33 (= |next.cx!2!1| |state.val|))) (let ((l34 (= |next.cx!2!2| |state.val|))) (let ((l35 (= |next.cx!2!3| |state.val|))) (let ((l36 (= |next.cx!2!4| |state.val|))) (let ((l37 (= |next.cx!2!5| |state.val|))) (let ((l38 (= |next.cx!2!6| |state.val|))) (let ((l39 (= |next.cx!2!7| |state.val|))) (let ((l40 (and l32 l33 l34 l35 l36 l37 l38 l39))) (let ((l41 (or l29 l31 l40))) (let ((l42 (= |next.cx!0!0| 0))) (let ((l43 (= |next.cx!0!1| 0))) (let ((l44 (= |next.cx!0!2| 0))) (let ((l45 (= |next.cx!0!3| 0))) (let ((l46 (= |next.cx!0!4| 0))) (let ((l47 (= |next.cx!0!5| 0))) (let ((l48 (= |next.cx!0!6| 0))) (let ((l49 (= |next.cx!0!7| 0))) (let ((l50 (and l42 l43 l44 l45 l46 l47 l48 l49))) (let ((l51 (or l3 l4 l50))) (let ((l52 (= |next.cx!1!0| 0))) (let ((l53 (= |next.cx!1!1| 0))) (let ((l54 (= |next.cx!1!2| 0))) (let ((l55 (= |next.cx!1!3| 0))) (let ((l56 (= |next.cx!1!4| 0))) (let ((l57 (= |next.cx!1!5| 0))) (let ((l58 (= |next.cx!1!6| 0))) (let ((l59 (= |next.cx!1!7| 0))) (let ((l60 (and l52 l53 l54 l55 l56 l57 l58 l59))) (let ((l61 (or l16 l17 l60))) (let ((l62 (= |next.cx!2!0| 0))) (let ((l63 (= |next.cx!2!1| 0))) (let ((l64 (= |next.cx!2!2| 0))) (let ((l65 (= |next.cx!2!3| 0))) (let ((l66 (= |next.cx!2!4| 0))) (let ((l67 (= |next.cx!2!5| 0))) (let ((l68 (= |next.cx!2!6| 0))) (let ((l69 (= |next.cx!2!7| 0))) (let ((l70 (and l62 l63 l64 l65 l66 l67 l68 l69))) (let ((l71 (or l29 l30 l70))) (let ((l72 (and l15 l28 l41 l51 l61 l71))) (let ((l73 (= |next.round| 1))) (let ((l74 (= |next.cy!0!0| |state.cy!0!0|))) (let ((l75 (= |next.cy!0!1| |state.cy!0!1|))) (let ((l76 (= |next.cy!0!2| |state.cy!0!2|))) (let ((l77 (= |next.cy!0!3| |state.cy!0!3|))) (let ((l78 (= |next.cy!0!4| |state.cy!0!4|))) (let ((l79 (= |next.cy!0!5| |state.cy!0!5|))) (let ((l80 (= |next.cy!0!6| |state.cy!0!6|))) (let ((l81 (= |next.cy!0!7| |state.cy!0!7|))) (let ((l82 (= |next.cy!1!0| |state.cy!1!0|))) (let ((l83 (= |next.cy!1!1| |state.cy!1!1|))) (let ((l84 (= |next.cy!1!2| |state.cy!1!2|))) (let ((l85 (= |next.cy!1!3| |state.cy!1!3|))) (let ((l86 (= |next.cy!1!4| |state.cy!1!4|))) (let ((l87 (= |next.cy!1!5| |state.cy!1!5|))) (let ((l88 (= |next.cy!1!6| |state.cy!1!6|))) (let ((l89 (= |next.cy!1!7| |state.cy!1!7|))) (let ((l90 (= |next.cy!2!0| |state.cy!2!0|))) (let ((l91 (= |next.cy!2!1| |state.cy!2!1|))) (let ((l92 (= |next.cy!2!2| |state.cy!2!2|))) (let ((l93 (= |next.cy!2!3| |state.cy!2!3|))) (let ((l94 (= |next.cy!2!4| |state.cy!2!4|))) (let ((l95 (= |next.cy!2!5| |state.cy!2!5|))) (let ((l96 (= |next.cy!2!6| |state.cy!2!6|))) (let ((l97 (= |next.cy!2!7| |state.cy!2!7|))) (let ((l98 (and l74 l75 l76 l77 l78 l79 l80 l81 l82 l83 l84 l85 l86 l87 l88 l89 l90 l91 l92 l93 l94 l95 l96 l97))) (let ((l99 (= |next.good_p!0| |state.good_p!0|))) (let ((l100 (= |next.good_p!1| |state.good_p!1|))) (let ((l101 (= |next.good_p!2| |state.good_p!2|))) (let ((l102 (and l99 l100 l101))) (let ((l103 (= |next.good_r!0| |state.good_r!0|))) (let ((l104 (= |next.good_r!1| |state.good_r!1|))) (let ((l105 (= |next.good_r!2| |state.good_r!2|))) (let ((l106 (= |next.good_r!3| |state.good_r!3|))) (let ((l107 (= |next.good_r!4| |state.good_r!4|))) (let ((l108 (= |next.good_r!5| |state.good_r!5|))) (let ((l109 (= |next.good_r!6| |state.good_r!6|))) (let ((l110 (= |next.good_r!7| |state.good_r!7|))) (let ((l111 (and l103 l104 l105 l106 l107 l108 l109 l110))) (let ((l112 (= |next.v!0| |state.v!0|))) (let ((l113 (= |next.v!1| |state.v!1|))) (let ((l114 (= |next.v!2| |state.v!2|))) (let ((l115 (and l112 l113 l114))) (let ((l116 (and l2 l72 l73 l98 l102 l111 l115))) (let ((l117 (= |state.round| 1))) (let ((l118 (not |state.good_r!0|))) (let ((l119 (= |state.source| 3))) (let ((l120 (= |state.source| 2))) (let ((l121 (ite l120 |state.cx!1!0| |state.cx!0!0|))) (let ((l122 (ite l119 |state.cx!2!0| l121))) (let ((l123 (= |next.cy!0!0| l122))) (let ((l124 (or l118 l123))) (let ((l125 (= |next.cy!1!0| l122))) (let ((l126 (or l118 l125))) (let ((l127 (= |next.cy!2!0| l122))) (let ((l128 (or l118 l127))) (let ((l129 (not |state.good_r!1|))) (let ((l130 (ite l120 |state.cx!1!1| |state.cx!0!1|))) (let ((l131 (ite l119 |state.cx!2!1| l130))) (let ((l132 (= |next.cy!0!1| l131))) (let ((l133 (or l129 l132))) (let ((l134 (= |next.cy!1!1| l131))) (let ((l135 (or l129 l134))) (let ((l136 (= |next.cy!2!1| l131))) (let ((l137 (or l129 l136))) (let ((l138 (not |state.good_r!2|))) (let ((l139 (ite l120 |state.cx!1!2| |state.cx!0!2|))) (let ((l140 (ite l119 |state.cx!2!2| l139))) (let ((l141 (= |next.cy!0!2| l140))) (let ((l142 (or l138 l141))) (let ((l143 (= |next.cy!1!2| l140))) (let ((l144 (or l138 l143))) (let ((l145 (= |next.cy!2!2| l140))) (let ((l146 (or l138 l145))) (let ((l147 (not |state.good_r!3|))) (let ((l148 (ite l120 |state.cx!1!3| |state.cx!0!3|))) (let ((l149 (ite l119 |state.cx!2!3| l148))) (let ((l150 (= |next.cy!0!3| l149))) (let ((l151 (or l147 l150))) (let ((l152 (= |next.cy!1!3| l149))) (let ((l153 (or l147 l152))) (let ((l154 (= |next.cy!2!3| l149))) (let ((l155 (or l147 l154))) (let ((l156 (not |state.good_r!4|))) (let ((l157 (ite l120 |state.cx!1!4| |state.cx!0!4|))) (let ((l158 (ite l119 |state.cx!2!4| l157))) (let ((l159 (= |next.cy!0!4| l158))) (let ((l160 (or l156 l159))) (let ((l161 (= |next.cy!1!4| l158))) (let ((l162 (or l156 l161))) (let ((l163 (= |next.cy!2!4| l158))) (let ((l164 (or l156 l163))) (let ((l165 (not |state.good_r!5|))) (let ((l166 (ite l120 |state.cx!1!5| |state.cx!0!5|))) (let ((l167 (ite l119 |state.cx!2!5| l166))) (let ((l168 (= |next.cy!0!5| l167))) (let ((l169 (or l165 l168))) (let ((l170 (= |next.cy!1!5| l167))) (let ((l171 (or l165 l170))) (let ((l172 (= |next.cy!2!5| l167))) (let ((l173 (or l165 l172))) (let ((l174 (not |state.good_r!6|))) (let ((l175 (ite l120 |state.cx!1!6| |state.cx!0!6|))) (let ((l176 (ite l119 |state.cx!2!6| l175))) (let ((l177 (= |next.cy!0!6| l176))) (let ((l178 (or l174 l177))) (let ((l179 (= |next.cy!1!6| l176))) (let ((l180 (or l174 l179))) (let ((l181 (= |next.cy!2!6| l176))) (let ((l182 (or l174 l181))) (let ((l183 (not |state.good_r!7|))) (let ((l184 (ite l120 |state.cx!1!7| |state.cx!0!7|))) (let ((l185 (ite l119 |state.cx!2!7| l184))) (let ((l186 (= |next.cy!0!7| l185))) (let ((l187 (or l183 l186))) (let ((l188 (= |next.cy!1!7| l185))) (let ((l189 (or l183 l188))) (let ((l190 (= |next.cy!2!7| l185))) (let ((l191 (or l183 l190))) (let ((l192 (and l124 l126 l128 l133 l135 l137 l142 l144 l146 l151 l153 l155 l160 l162 l164 l169 l171 l173 l178 l180 l182 l187 l189 l191))) (let ((l193 (= |next.round| 2))) (let ((l194 (= |next.cx!0!0| |state.cx!0!0|))) (let ((l195 (= |next.cx!0!1| |state.cx!0!1|))) (let ((l196 (= |next.cx!0!2| |state.cx!0!2|))) (let ((l197 (= |next.cx!0!3| |state.cx!0!3|))) (let ((l198 (= |next.cx!0!4| |state.cx!0!4|))) (let ((l199 (= |next.cx!0!5| |state.cx!0!5|))) (let ((l200 (= |next.cx!0!6| |state.cx!0!6|))) (let ((l201 (= |next.cx!0!7| |state.cx!0!7|))) (let ((l202 (= |next.cx!1!0| |state.cx!1!0|))) (let ((l203 (= |next.cx!1!1| |state.cx!1!1|))) (let ((l204 (= |next.cx!1!2| |state.cx!1!2|))) (let ((l205 (= |next.cx!1!3| |state.cx!1!3|))) (let ((l206 (= |next.cx!1!4| |state.cx!1!4|))) (let ((l207 (= |next.cx!1!5| |state.cx!1!5|))) (let ((l208 (= |next.cx!1!6| |state.cx!1!6|))) (let ((l209 (= |next.cx!1!7| |state.cx!1!7|))) (let ((l210 (= |next.cx!2!0| |state.cx!2!0|))) (let ((l211 (= |next.cx!2!1| |state.cx!2!1|))) (let ((l212 (= |next.cx!2!2| |state.cx!2!2|))) (let ((l213 (= |next.cx!2!3| |state.cx!2!3|))) (let ((l214 (= |next.cx!2!4| |state.cx!2!4|))) (let ((l215 (= |next.cx!2!5| |state.cx!2!5|))) (let ((l216 (= |next.cx!2!6| |state.cx!2!6|))) (let ((l217 (= |next.cx!2!7| |state.cx!2!7|))) (let ((l218 (and l194 l195 l196 l197 l198 l199 l200 l201 l202 l203 l204 l205 l206 l207 l208 l209 l210 l211 l212 l213 l214 l215 l216 l217))) (let ((l219 (and l117 l192 l193 l218 l102 l111 l115))) (let ((l220 (= |state.round| 2))) (let ((l221 (= |state.cy!0!6| |state.cy!0!7|))) (let ((l222 (ite l221 2 0))) (let ((l223 (= l222 0))) (let ((l224 (= |state.cy!0!5| |state.cy!0!7|))) (let ((l225 (+ l222 1))) (let ((l226 (- l222 1))) (let ((l227 (ite l224 l225 l226))) (let ((l228 (ite l223 1 l227))) (let ((l229 (= l228 0))) (let ((l230 (ite l223 |state.cy!0!5| |state.cy!0!7|))) (let ((l231 (= |state.cy!0!4| l230))) (let ((l232 (+ l228 1))) (let ((l233 (- l228 1))) (let ((l234 (ite l231 l232 l233))) (let ((l235 (ite l229 1 l234))) (let ((l236 (= l235 0))) (let ((l237 (ite l229 |state.cy!0!4| l230))) (let ((l238 (= |state.cy!0!3| l237))) (let ((l239 (+ l235 1))) (let ((l240 (- l235 1))) (let ((l241 (ite l238 l239 l240))) (let ((l242 (ite l236 1 l241))) (let ((l243 (= l242 0))) (let ((l244 (ite l236 |state.cy!0!3| l237))) (let ((l245 (= |state.cy!0!2| l244))) (let ((l246 (+ l242 1))) (let ((l247 (- l242 1))) (let ((l248 (ite l245 l246 l247))) (let ((l249 (ite l243 1 l248))) (let ((l250 (= l249 0))) (let ((l251 (ite l243 |state.cy!0!2| l244))) (let ((l252 (= |state.cy!0!1| l251))) (let ((l253 (+ l249 1))) (let ((l254 (- l249 1))) (let ((l255 (ite l252 l253 l254))) (let ((l256 (ite l250 1 l255))) (let ((l257 (= l256 0))) (let ((l258 (ite l250 |state.cy!0!1| l251))) (let ((l259 (ite l257 |state.cy!0!0| l258))) (let ((l260 (= |state.cy!0!7| l259))) (let ((l261 (ite l260 4 5))) (let ((l262 (= l261 0))) (let ((l263 (= |state.cy!0!6| l259))) (let ((l264 (- l261 1))) (let ((l265 (ite l263 l264 l261))) (let ((l266 (= l265 0))) (let ((l267 (= |state.cy!0!5| l259))) (let ((l268 (- l265 1))) (let ((l269 (ite l267 l268 l265))) (let ((l270 (= l269 0))) (let ((l271 (= |state.cy!0!4| l259))) (let ((l272 (- l269 1))) (let ((l273 (ite l271 l272 l269))) (let ((l274 (= l273 0))) (let ((l275 (= |state.cy!0!3| l259))) (let ((l276 (- l273 1))) (let ((l277 (ite l275 l276 l273))) (let ((l278 (= l277 0))) (let ((l279 (= |state.cy!0!2| l259))) (let ((l280 (- l277 1))) (let ((l281 (ite l279 l280 l277))) (let ((l282 (= l281 0))) (let ((l283 (= |state.cy!0!1| l259))) (let ((l284 (- l281 1))) (let ((l285 (ite l283 l284 l281))) (let ((l286 (= l285 0))) (let ((l287 (= |state.cy!0!0| l259))) (let ((l288 (- l285 1))) (let ((l289 (ite l287 l288 l285))) (let ((l290 (= l289 0))) (let ((l291 (or l262 l266 l270 l274 l278 l282 l286 l290))) (let ((l292 (ite l291 l259 0))) (let ((l293 (= |next.v!0| l292))) (let ((l294 (or l3 l293))) (let ((l295 (= |state.cy!1!6| |state.cy!1!7|))) (let ((l296 (ite l295 2 0))) (let ((l297 (= l296 0))) (let ((l298 (= |state.cy!1!5| |state.cy!1!7|))) (let ((l299 (+ l296 1))) (let ((l300 (- l296 1))) (let ((l301 (ite l298 l299 l300))) (let ((l302 (ite l297 1 l301))) (let ((l303 (= l302 0))) (let ((l304 (ite l297 |state.cy!1!5| |state.cy!1!7|))) (let ((l305 (= |state.cy!1!4| l304))) (let ((l306 (+ l302 1))) (let ((l307 (- l302 1))) (let ((l308 (ite l305 l306 l307))) (let ((l309 (ite l303 1 l308))) (let ((l310 (= l309 0))) (let ((l311 (ite l303 |state.cy!1!4| l304))) (let ((l312 (= |state.cy!1!3| l311))) (let ((l313 (+ l309 1))) (let ((l314 (- l309 1))) (let ((l315 (ite l312 l313 l314))) (let ((l316 (ite l310 1 l315))) (let ((l317 (= l316 0))) (let ((l318 (ite l310 |state.cy!1!3| l311))) (let ((l319 (= |state.cy!1!2| l318))) (let ((l320 (+ l316 1))) (let ((l321 (- l316 1))) (let ((l322 (ite l319 l320 l321))) (let ((l323 (ite l317 1 l322))) (let ((l324 (= l323 0))) (let ((l325 (ite l317 |state.cy!1!2| l318))) (let ((l326 (= |state.cy!1!1| l325))) (let ((l327 (+ l323 1))) (let ((l328 (- l323 1))) (let ((l329 (ite l326 l327 l328))) (let ((l330 (ite l324 1 l329))) (let ((l331 (= l330 0))) (let ((l332 (ite l324 |state.cy!1!1| l325))) (let ((l333 (ite l331 |state.cy!1!0| l332))) (let ((l334 (= |state.cy!1!7| l333))) (let ((l335 (ite l334 4 5))) (let ((l336 (= l335 0))) (let ((l337 (= |state.cy!1!6| l333))) (let ((l338 (- l335 1))) (let ((l339 (ite l337 l338 l335))) (let ((l340 (= l339 0))) (let ((l341 (= |state.cy!1!5| l333))) (let ((l342 (- l339 1))) (let ((l343 (ite l341 l342 l339))) (let ((l344 (= l343 0))) (let ((l345 (= |state.cy!1!4| l333))) (let ((l346 (- l343 1))) (let ((l347 (ite l345 l346 l343))) (let ((l348 (= l347 0))) (let ((l349 (= |state.cy!1!3| l333))) (let ((l350 (- l347 1))) (let ((l351 (ite l349 l350 l347))) (let ((l352 (= l351 0))) (let ((l353 (= |state.cy!1!2| l333))) (let ((l354 (- l351 1))) (let ((l355 (ite l353 l354 l351))) (let ((l356 (= l355 0))) (let ((l357 (= |state.cy!1!1| l333))) (let ((l358 (- l355 1))) (let ((l359 (ite l357 l358 l355))) (let ((l360 (= l359 0))) (let ((l361 (= |state.cy!1!0| l333))) (let ((l362 (- l359 1))) (let ((l363 (ite l361 l362 l359))) (let ((l364 (= l363 0))) (let ((l365 (or l336 l340 l344 l348 l352 l356 l360 l364))) (let ((l366 (ite l365 l333 0))) (let ((l367 (= |next.v!1| l366))) (let ((l368 (or l16 l367))) (let ((l369 (= |state.cy!2!6| |state.cy!2!7|))) (let ((l370 (ite l369 2 0))) (let ((l371 (= l370 0))) (let ((l372 (= |state.cy!2!5| |state.cy!2!7|))) (let ((l373 (+ l370 1))) (let ((l374 (- l370 1))) (let ((l375 (ite l372 l373 l374))) (let ((l376 (ite l371 1 l375))) (let ((l377 (= l376 0))) (let ((l378 (ite l371 |state.cy!2!5| |state.cy!2!7|))) (let ((l379 (= |state.cy!2!4| l378))) (let ((l380 (+ l376 1))) (let ((l381 (- l376 1))) (let ((l382 (ite l379 l380 l381))) (let ((l383 (ite l377 1 l382))) (let ((l384 (= l383 0))) (let ((l385 (ite l377 |state.cy!2!4| l378))) (let ((l386 (= |state.cy!2!3| l385))) (let ((l387 (+ l383 1))) (let ((l388 (- l383 1))) (let ((l389 (ite l386 l387 l388))) (let ((l390 (ite l384 1 l389))) (let ((l391 (= l390 0))) (let ((l392 (ite l384 |state.cy!2!3| l385))) (let ((l393 (= |state.cy!2!2| l392))) (let ((l394 (+ l390 1))) (let ((l395 (- l390 1))) (let ((l396 (ite l393 l394 l395))) (let ((l397 (ite l391 1 l396))) (let ((l398 (= l397 0))) (let ((l399 (ite l391 |state.cy!2!2| l392))) (let ((l400 (= |state.cy!2!1| l399))) (let ((l401 (+ l397 1))) (let ((l402 (- l397 1))) (let ((l403 (ite l400 l401 l402))) (let ((l404 (ite l398 1 l403))) (let ((l405 (= l404 0))) (let ((l406 (ite l398 |state.cy!2!1| l399))) (let ((l407 (ite l405 |state.cy!2!0| l406))) (let ((l408 (= |state.cy!2!7| l407))) (let ((l409 (ite l408 4 5))) (let ((l410 (= l409 0))) (let ((l411 (= |state.cy!2!6| l407))) (let ((l412 (- l409 1))) (let ((l413 (ite l411 l412 l409))) (let ((l414 (= l413 0))) (let ((l415 (= |state.cy!2!5| l407))) (let ((l416 (- l413 1))) (let ((l417 (ite l415 l416 l413))) (let ((l418 (= l417 0))) (let ((l419 (= |state.cy!2!4| l407))) (let ((l420 (- l417 1))) (let ((l421 (ite l419 l420 l417))) (let ((l422 (= l421 0))) (let ((l423 (= |state.cy!2!3| l407))) (let ((l424 (- l421 1))) (let ((l425 (ite l423 l424 l421))) (let ((l426 (= l425 0))) (let ((l427 (= |state.cy!2!2| l407))) (let ((l428 (- l425 1))) (let ((l429 (ite l427 l428 l425))) (let ((l430 (= l429 0))) (let ((l431 (= |state.cy!2!1| l407))) (let ((l432 (- l429 1))) (let ((l433 (ite l431 l432 l429))) (let ((l434 (= l433 0))) (let ((l435 (= |state.cy!2!0| l407))) (let ((l436 (- l433 1))) (let ((l437 (ite l435 l436 l433))) (let ((l438 (= l437 0))) (let ((l439 (or l410 l414 l418 l422 l426 l430 l434 l438))) (let ((l440 (ite l439 l407 0))) (let ((l441 (= |next.v!2| l440))) (let ((l442 (or l29 l441))) (let ((l443 (and l294 l368 l442))) (let ((l444 (= |next.round| 3))) (let ((l445 (and l220 l443 l444 l218 l98 l102 l111))) (let ((l446 (= |state.round| 3))) (let ((l447 (= |next.round| |state.round|))) (let ((l448 (and l446 l218 l98 l102 l111 l447 l115))) (let ((l449 (or l116 l219 l445 l448))) (let ((l450 (and l0 l1 l449))) l450)))))))))))))))))))))))))))))))))))))))))))))))))))))))))))))))))))))))))))))))))))))))))))))))))))))))))))))))))))))))))))))))))))))))))))))))))))))))))))))))))))))))))))))))))))))))))))))))))))))))))))))))))))))))))))))))))))))))))))))))))))))))))))))))))))))))))))))))))))))))))))))))))))))))))))))))))))))))))))))))))))))))))))))))))))))))))))))))))))))))))))))))))))))))))))))))))))))))))))))))))))))))))))))))))))))))))))))))))))))))))))))))))))
        )
        (invariant next.cx!0!0 next.cx!0!1 next.cx!0!2 next.cx!0!3 next.cx!0!4 next.cx!0!5 next.cx!0!6 next.cx!0!7 next.cx!1!0 next.cx!1!1 next.cx!1!2 next.cx!1!3 next.cx!1!4 next.cx!1!5 next.cx!1!6 next.cx!1!7 next.cx!2!0 next.cx!2!1 next.cx!2!2 next.cx!2!3 next.cx!2!4 next.cx!2!5 next.cx!2!6 next.cx!2!7 next.cy!0!0 next.cy!0!1 next.cy!0!2 next.cy!0!3 next.cy!0!4 next.cy!0!5 next.cy!0!6 next.cy!0!7 next.cy!1!0 next.cy!1!1 next.cy!1!2 next.cy!1!3 next.cy!1!4 next.cy!1!5 next.cy!1!6 next.cy!1!7 next.cy!2!0 next.cy!2!1 next.cy!2!2 next.cy!2!3 next.cy!2!4 next.cy!2!5 next.cy!2!6 next.cy!2!7 next.good_p!0 next.good_p!1 next.good_p!2 next.good_r!0 next.good_r!1 next.good_r!2 next.good_r!3 next.good_r!4 next.good_r!5 next.good_r!6 next.good_r!7 next.v!0 next.v!1 next.v!2 next.round next.source next.val)
    )
  )
)

;; Property
(assert
  (forall ((state.cx!0!0 Real) (state.cx!0!1 Real) (state.cx!0!2 Real) (state.cx!0!3 Real) (state.cx!0!4 Real) (state.cx!0!5 Real) (state.cx!0!6 Real) (state.cx!0!7 Real) (state.cx!1!0 Real) (state.cx!1!1 Real) (state.cx!1!2 Real) (state.cx!1!3 Real) (state.cx!1!4 Real) (state.cx!1!5 Real) (state.cx!1!6 Real) (state.cx!1!7 Real) (state.cx!2!0 Real) (state.cx!2!1 Real) (state.cx!2!2 Real) (state.cx!2!3 Real) (state.cx!2!4 Real) (state.cx!2!5 Real) (state.cx!2!6 Real) (state.cx!2!7 Real) (state.cy!0!0 Real) (state.cy!0!1 Real) (state.cy!0!2 Real) (state.cy!0!3 Real) (state.cy!0!4 Real) (state.cy!0!5 Real) (state.cy!0!6 Real) (state.cy!0!7 Real) (state.cy!1!0 Real) (state.cy!1!1 Real) (state.cy!1!2 Real) (state.cy!1!3 Real) (state.cy!1!4 Real) (state.cy!1!5 Real) (state.cy!1!6 Real) (state.cy!1!7 Real) (state.cy!2!0 Real) (state.cy!2!1 Real) (state.cy!2!2 Real) (state.cy!2!3 Real) (state.cy!2!4 Real) (state.cy!2!5 Real) (state.cy!2!6 Real) (state.cy!2!7 Real) (state.good_p!0 Bool) (state.good_p!1 Bool) (state.good_p!2 Bool) (state.good_r!0 Bool) (state.good_r!1 Bool) (state.good_r!2 Bool) (state.good_r!3 Bool) (state.good_r!4 Bool) (state.good_r!5 Bool) (state.good_r!6 Bool) (state.good_r!7 Bool) (state.v!0 Real) (state.v!1 Real) (state.v!2 Real) (state.round Real) (state.source Real) (state.val Real))
    (=> (invariant state.cx!0!0 state.cx!0!1 state.cx!0!2 state.cx!0!3 state.cx!0!4 state.cx!0!5 state.cx!0!6 state.cx!0!7 state.cx!1!0 state.cx!1!1 state.cx!1!2 state.cx!1!3 state.cx!1!4 state.cx!1!5 state.cx!1!6 state.cx!1!7 state.cx!2!0 state.cx!2!1 state.cx!2!2 state.cx!2!3 state.cx!2!4 state.cx!2!5 state.cx!2!6 state.cx!2!7 state.cy!0!0 state.cy!0!1 state.cy!0!2 state.cy!0!3 state.cy!0!4 state.cy!0!5 state.cy!0!6 state.cy!0!7 state.cy!1!0 state.cy!1!1 state.cy!1!2 state.cy!1!3 state.cy!1!4 state.cy!1!5 state.cy!1!6 state.cy!1!7 state.cy!2!0 state.cy!2!1 state.cy!2!2 state.cy!2!3 state.cy!2!4 state.cy!2!5 state.cy!2!6 state.cy!2!7 state.good_p!0 state.good_p!1 state.good_p!2 state.good_r!0 state.good_r!1 state.good_r!2 state.good_r!3 state.good_r!4 state.good_r!5 state.good_r!6 state.good_r!7 state.v!0 state.v!1 state.v!2 state.round state.source state.val)
        (let ((l0 (= |state.source| 3))) (let ((l1 (= |state.source| 2))) (let ((l2 (ite l1 |state.good_p!1| |state.good_p!0|))) (let ((l3 (ite l0 |state.good_p!2| l2))) (let ((l4 (not l3))) (let ((l5 (< |state.round| 3))) (let ((l6 (not |state.good_p!0|))) (let ((l7 (= |state.v!0| |state.val|))) (let ((l8 (or l6 l7))) (let ((l9 (not |state.good_p!1|))) (let ((l10 (= |state.v!1| |state.val|))) (let ((l11 (or l9 l10))) (let ((l12 (not |state.good_p!2|))) (let ((l13 (= |state.v!2| |state.val|))) (let ((l14 (or l12 l13))) (let ((l15 (and l8 l11 l14))) (let ((l16 (or l4 l5 l15))) l16)))))))))))))))))
    )
  )
)

;; Check the property
(check-sat)
